NAME : X-n655-k131
COMMENT : "Generated by Uchoa, Pecin, Pessoa, Poggi, Subramanian, and Vidal (2013)"
TYPE : CVRP
DIMENSION : 655
EDGE_WEIGHT_TYPE : EUC_2D
CAPACITY : 5
NODE_COORD_SECTION
1 500 500
2 346 793
3 692 966
4 171 666
5 287 795
6 133 668
7 704 959
8 400 795
9 195 897
10 845 931
11 829 724
12 300 860
13 218 829
14 116 780
15 237 631
16 126 681
17 825 922
18 315 913
19 271 769
20 530 917
21 156 900
22 265 808
23 171 742
24 388 776
25 153 664
26 393 855
27 320 751
28 594 862
29 213 810
30 723 924
31 192 877
32 661 910
33 153 729
34 334 812
35 558 944
36 502 783
37 266 747
38 23 753
39 180 584
40 702 854
41 354 649
42 412 709
43 721 928
44 168 674
45 364 640
46 375 727
47 247 977
48 332 853
49 664 929
50 646 901
51 248 723
52 116 628
53 123 690
54 247 539
55 715 966
56 314 712
57 237 747
58 202 679
59 409 946
60 684 879
61 142 576
62 204 636
63 440 817
64 697 882
65 772 977
66 177 889
67 341 787
68 391 725
69 82 764
70 734 834
71 352 732
72 646 553
73 102 631
74 354 612
75 374 865
76 421 812
77 335 835
78 646 931
79 560 910
80 702 965
81 273 790
82 329 750
83 300 586
84 850 855
85 235 683
86 393 953
87 389 923
88 341 851
89 781 946
90 329 862
91 472 873
92 356 895
93 194 733
94 53 777
95 133 596
96 606 971
97 273 812
98 223 812
99 156 820
100 317 650
101 177 790
102 389 747
103 663 944
104 336 940
105 284 739
106 737 977
107 249 956
108 433 852
109 294 856
110 285 879
111 280 818
112 175 885
113 295 747
114 669 902
115 763 969
116 138 632
117 193 593
118 220 818
119 145 800
120 739 960
121 72 672
122 752 940
123 639 894
124 329 726
125 799 987
126 118 343
127 660 917
128 382 741
129 242 626
130 164 824
131 350 881
132 509 886
133 190 416
134 72 656
135 353 659
136 132 677
137 364 771
138 893 900
139 140 645
140 411 757
141 397 805
142 171 644
143 488 625
144 260 816
145 764 980
146 149 657
147 769 855
148 716 925
149 191 843
150 566 966
151 620 908
152 358 727
153 268 705
154 406 927
155 139 943
156 192 762
157 549 931
158 177 664
159 433 707
160 301 753
161 361 840
162 120 764
163 178 664
164 109 751
165 318 529
166 419 952
167 309 737
168 289 787
169 350 812
170 88 794
171 151 658
172 185 883
173 411 467
174 603 872
175 342 708
176 317 747
177 579 988
178 329 555
179 361 731
180 37 706
181 394 558
182 154 745
183 324 703
184 370 912
185 727 900
186 150 702
187 383 694
188 151 679
189 149 654
190 144 638
191 269 635
192 212 842
193 217 644
194 250 597
195 835 953
196 620 949
197 324 910
198 344 793
199 176 922
200 370 746
201 204 682
202 262 830
203 328 484
204 385 931
205 706 957
206 201 655
207 300 737
208 379 791
209 728 720
210 296 858
211 154 613
212 663 942
213 135 908
214 805 910
215 646 872
216 113 692
217 349 554
218 290 737
219 430 668
220 588 977
221 236 656
222 370 871
223 286 727
224 89 671
225 136 667
226 195 761
227 188 705
228 377 846
229 375 728
230 269 763
231 235 694
232 452 826
233 281 909
234 215 585
235 325 707
236 419 817
237 392 704
238 152 544
239 136 580
240 643 996
241 198 731
242 155 556
243 345 859
244 99 666
245 519 722
246 168 757
247 295 824
248 676 800
249 229 686
250 772 941
251 294 729
252 637 926
253 464 795
254 346 681
255 327 758
256 665 965
257 98 690
258 852 860
259 770 889
260 124 598
261 235 831
262 680 969
263 323 800
264 525 931
265 120 772
266 839 978
267 214 652
268 660 965
269 297 626
270 236 738
271 148 850
272 138 699
273 336 773
274 605 738
275 190 648
276 119 620
277 198 853
278 288 514
279 888 888
280 165 542
281 682 934
282 794 844
283 759 985
284 416 819
285 724 966
286 403 812
287 270 789
288 482 818
289 69 537
290 734 946
291 292 679
292 346 556
293 644 943
294 681 943
295 323 765
296 514 782
297 141 713
298 624 870
299 625 952
300 356 923
301 356 576
302 328 801
303 185 648
304 287 633
305 689 956
306 645 958
307 137 895
308 299 975
309 448 752
310 348 642
311 151 631
312 675 910
313 245 776
314 434 705
315 283 804
316 889 924
317 187 781
318 486 662
319 350 844
320 519 720
321 720 924
322 259 800
323 514 712
324 443 521
325 421 818
326 174 765
327 750 969
328 481 831
329 281 600
330 141 959
331 299 730
332 320 840
333 341 651
334 365 730
335 789 953
336 680 906
337 145 740
338 304 810
339 290 741
340 467 973
341 600 980
342 288 613
343 309 761
344 153 907
345 307 834
346 335 809
347 989 940
348 176 655
349 759 975
350 345 821
351 658 971
352 749 841
353 380 754
354 316 640
355 177 803
356 133 650
357 254 803
358 311 838
359 293 782
360 493 855
361 704 715
362 102 745
363 226 806
364 147 600
365 437 837
366 262 671
367 152 706
368 310 738
369 146 594
370 864 905
371 271 792
372 317 845
373 607 724
374 407 563
375 469 986
376 693 918
377 235 641
378 405 833
379 617 890
380 508 893
381 361 822
382 712 984
383 577 895
384 225 550
385 171 397
386 391 780
387 418 845
388 155 768
389 135 553
390 381 894
391 383 713
392 631 842
393 313 899
394 777 738
395 289 831
396 699 923
397 323 706
398 309 774
399 232 689
400 232 654
401 540 966
402 373 830
403 137 742
404 205 693
405 178 829
406 203 663
407 354 767
408 212 657
409 370 890
410 300 820
411 142 643
412 274 816
413 358 665
414 330 387
415 152 815
416 522 768
417 232 688
418 179 630
419 359 620
420 276 725
421 269 741
422 300 881
423 234 495
424 848 971
425 141 576
426 158 722
427 140 687
428 293 767
429 250 870
430 571 769
431 162 708
432 236 891
433 142 766
434 470 860
435 409 941
436 293 643
437 219 907
438 438 500
439 381 689
440 186 778
441 298 706
442 149 681
443 745 731
444 314 700
445 252 792
446 218 889
447 286 867
448 331 662
449 817 976
450 210 767
451 60 635
452 290 814
453 356 864
454 377 751
455 759 947
456 209 914
457 348 823
458 600 940
459 283 741
460 219 943
461 334 754
462 146 701
463 245 914
464 333 697
465 700 975
466 354 815
467 281 903
468 393 876
469 313 794
470 116 629
471 350 746
472 457 836
473 360 833
474 723 793
475 322 922
476 373 835
477 182 725
478 612 984
479 276 788
480 337 871
481 157 712
482 180 718
483 110 751
484 478 864
485 198 713
486 97 782
487 245 799
488 366 753
489 705 860
490 251 740
491 331 736
492 678 955
493 357 819
494 170 770
495 310 710
496 138 651
497 157 698
498 299 520
499 253 784
500 314 735
501 238 903
502 753 794
503 116 779
504 25 788
505 115 837
506 191 605
507 39 803
508 269 809
509 333 845
510 103 581
511 390 849
512 678 973
513 368 739
514 218 733
515 698 973
516 742 935
517 338 814
518 272 632
519 96 621
520 200 778
521 741 911
522 728 990
523 374 755
524 628 922
525 713 842
526 426 574
527 243 643
528 736 891
529 379 850
530 348 845
531 370 701
532 281 761
533 121 730
534 189 703
535 405 747
536 722 827
537 380 638
538 192 679
539 323 680
540 194 723
541 675 994
542 391 872
543 754 984
544 319 838
545 289 917
546 466 764
547 409 807
548 302 908
549 140 817
550 303 803
551 479 913
552 42 548
553 349 834
554 702 995
555 686 901
556 379 698
557 659 924
558 362 867
559 290 701
560 157 702
561 289 978
562 239 744
563 312 820
564 742 986
565 195 565
566 339 789
567 191 700
568 341 972
569 259 794
570 200 725
571 219 685
572 378 793
573 329 846
574 326 617
575 640 793
576 317 866
577 279 817
578 942 960
579 369 728
580 688 978
581 190 881
582 136 608
583 184 611
584 85 689
585 507 533
586 326 860
587 279 803
588 688 984
589 653 911
590 360 747
591 319 744
592 390 741
593 252 873
594 657 981
595 104 721
596 363 911
597 154 695
598 667 910
599 185 714
600 896 805
601 73 709
602 324 725
603 258 810
604 233 734
605 794 896
606 267 664
607 84 667
608 692 953
609 299 858
610 193 780
611 647 844
612 427 680
613 227 914
614 57 738
615 708 994
616 249 792
617 283 655
618 146 694
619 263 686
620 105 706
621 241 837
622 312 704
623 199 748
624 370 882
625 227 644
626 331 670
627 295 836
628 59 723
629 201 647
630 662 737
631 249 655
632 183 835
633 343 587
634 285 816
635 770 930
636 354 804
637 331 901
638 817 995
639 172 670
640 397 950
641 317 783
642 391 900
643 309 797
644 324 959
645 437 695
646 77 613
647 361 894
648 721 986
649 272 770
650 688 871
651 708 917
652 380 847
653 359 931
654 83 847
655 185 712
PICKUP_AND_DELIVERY_SECTION
1 0 0 1000000000 0 0 0
2 0 0 1000000000 0 0 1
3 0 0 1000000000 0 1 0
4 0 0 1000000000 0 0 1
5 0 0 1000000000 0 1 0
6 0 0 1000000000 0 0 1
7 0 0 1000000000 0 1 0
8 0 0 1000000000 0 0 1
9 0 0 1000000000 0 1 0
10 0 0 1000000000 0 0 1
11 0 0 1000000000 0 1 0
12 0 0 1000000000 0 0 1
13 0 0 1000000000 0 1 0
14 0 0 1000000000 0 0 1
15 0 0 1000000000 0 1 0
16 0 0 1000000000 0 0 1
17 0 0 1000000000 0 1 0
18 0 0 1000000000 0 0 1
19 0 0 1000000000 0 1 0
20 0 0 1000000000 0 0 1
21 0 0 1000000000 0 1 0
22 0 0 1000000000 0 0 1
23 0 0 1000000000 0 1 0
24 0 0 1000000000 0 0 1
25 0 0 1000000000 0 1 0
26 0 0 1000000000 0 0 1
27 0 0 1000000000 0 1 0
28 0 0 1000000000 0 0 1
29 0 0 1000000000 0 1 0
30 0 0 1000000000 0 0 1
31 0 0 1000000000 0 1 0
32 0 0 1000000000 0 0 1
33 0 0 1000000000 0 1 0
34 0 0 1000000000 0 0 1
35 0 0 1000000000 0 1 0
36 0 0 1000000000 0 0 1
37 0 0 1000000000 0 1 0
38 0 0 1000000000 0 0 1
39 0 0 1000000000 0 1 0
40 0 0 1000000000 0 0 1
41 0 0 1000000000 0 1 0
42 0 0 1000000000 0 0 1
43 0 0 1000000000 0 1 0
44 0 0 1000000000 0 0 1
45 0 0 1000000000 0 1 0
46 0 0 1000000000 0 0 1
47 0 0 1000000000 0 1 0
48 0 0 1000000000 0 0 1
49 0 0 1000000000 0 1 0
50 0 0 1000000000 0 0 1
51 0 0 1000000000 0 1 0
52 0 0 1000000000 0 0 1
53 0 0 1000000000 0 1 0
54 0 0 1000000000 0 0 1
55 0 0 1000000000 0 1 0
56 0 0 1000000000 0 0 1
57 0 0 1000000000 0 1 0
58 0 0 1000000000 0 0 1
59 0 0 1000000000 0 1 0
60 0 0 1000000000 0 0 1
61 0 0 1000000000 0 1 0
62 0 0 1000000000 0 0 1
63 0 0 1000000000 0 1 0
64 0 0 1000000000 0 0 1
65 0 0 1000000000 0 1 0
66 0 0 1000000000 0 0 1
67 0 0 1000000000 0 1 0
68 0 0 1000000000 0 0 1
69 0 0 1000000000 0 1 0
70 0 0 1000000000 0 0 1
71 0 0 1000000000 0 1 0
72 0 0 1000000000 0 0 1
73 0 0 1000000000 0 1 0
74 0 0 1000000000 0 0 1
75 0 0 1000000000 0 1 0
76 0 0 1000000000 0 0 1
77 0 0 1000000000 0 1 0
78 0 0 1000000000 0 0 1
79 0 0 1000000000 0 1 0
80 0 0 1000000000 0 0 1
81 0 0 1000000000 0 1 0
82 0 0 1000000000 0 0 1
83 0 0 1000000000 0 1 0
84 0 0 1000000000 0 0 1
85 0 0 1000000000 0 1 0
86 0 0 1000000000 0 0 1
87 0 0 1000000000 0 1 0
88 0 0 1000000000 0 0 1
89 0 0 1000000000 0 1 0
90 0 0 1000000000 0 0 1
91 0 0 1000000000 0 1 0
92 0 0 1000000000 0 0 1
93 0 0 1000000000 0 1 0
94 0 0 1000000000 0 0 1
95 0 0 1000000000 0 1 0
96 0 0 1000000000 0 0 1
97 0 0 1000000000 0 1 0
98 0 0 1000000000 0 0 1
99 0 0 1000000000 0 1 0
100 0 0 1000000000 0 0 1
101 0 0 1000000000 0 1 0
102 0 0 1000000000 0 0 1
103 0 0 1000000000 0 1 0
104 0 0 1000000000 0 0 1
105 0 0 1000000000 0 1 0
106 0 0 1000000000 0 0 1
107 0 0 1000000000 0 1 0
108 0 0 1000000000 0 0 1
109 0 0 1000000000 0 1 0
110 0 0 1000000000 0 0 1
111 0 0 1000000000 0 1 0
112 0 0 1000000000 0 0 1
113 0 0 1000000000 0 1 0
114 0 0 1000000000 0 0 1
115 0 0 1000000000 0 1 0
116 0 0 1000000000 0 0 1
117 0 0 1000000000 0 1 0
118 0 0 1000000000 0 0 1
119 0 0 1000000000 0 1 0
120 0 0 1000000000 0 0 1
121 0 0 1000000000 0 1 0
122 0 0 1000000000 0 0 1
123 0 0 1000000000 0 1 0
124 0 0 1000000000 0 0 1
125 0 0 1000000000 0 1 0
126 0 0 1000000000 0 0 1
127 0 0 1000000000 0 1 0
128 0 0 1000000000 0 0 1
129 0 0 1000000000 0 1 0
130 0 0 1000000000 0 0 1
131 0 0 1000000000 0 1 0
132 0 0 1000000000 0 0 1
133 0 0 1000000000 0 1 0
134 0 0 1000000000 0 0 1
135 0 0 1000000000 0 1 0
136 0 0 1000000000 0 0 1
137 0 0 1000000000 0 1 0
138 0 0 1000000000 0 0 1
139 0 0 1000000000 0 1 0
140 0 0 1000000000 0 0 1
141 0 0 1000000000 0 1 0
142 0 0 1000000000 0 0 1
143 0 0 1000000000 0 1 0
144 0 0 1000000000 0 0 1
145 0 0 1000000000 0 1 0
146 0 0 1000000000 0 0 1
147 0 0 1000000000 0 1 0
148 0 0 1000000000 0 0 1
149 0 0 1000000000 0 1 0
150 0 0 1000000000 0 0 1
151 0 0 1000000000 0 1 0
152 0 0 1000000000 0 0 1
153 0 0 1000000000 0 1 0
154 0 0 1000000000 0 0 1
155 0 0 1000000000 0 1 0
156 0 0 1000000000 0 0 1
157 0 0 1000000000 0 1 0
158 0 0 1000000000 0 0 1
159 0 0 1000000000 0 1 0
160 0 0 1000000000 0 0 1
161 0 0 1000000000 0 1 0
162 0 0 1000000000 0 0 1
163 0 0 1000000000 0 1 0
164 0 0 1000000000 0 0 1
165 0 0 1000000000 0 1 0
166 0 0 1000000000 0 0 1
167 0 0 1000000000 0 1 0
168 0 0 1000000000 0 0 1
169 0 0 1000000000 0 1 0
170 0 0 1000000000 0 0 1
171 0 0 1000000000 0 1 0
172 0 0 1000000000 0 0 1
173 0 0 1000000000 0 1 0
174 0 0 1000000000 0 0 1
175 0 0 1000000000 0 1 0
176 0 0 1000000000 0 0 1
177 0 0 1000000000 0 1 0
178 0 0 1000000000 0 0 1
179 0 0 1000000000 0 1 0
180 0 0 1000000000 0 0 1
181 0 0 1000000000 0 1 0
182 0 0 1000000000 0 0 1
183 0 0 1000000000 0 1 0
184 0 0 1000000000 0 0 1
185 0 0 1000000000 0 1 0
186 0 0 1000000000 0 0 1
187 0 0 1000000000 0 1 0
188 0 0 1000000000 0 0 1
189 0 0 1000000000 0 1 0
190 0 0 1000000000 0 0 1
191 0 0 1000000000 0 1 0
192 0 0 1000000000 0 0 1
193 0 0 1000000000 0 1 0
194 0 0 1000000000 0 0 1
195 0 0 1000000000 0 1 0
196 0 0 1000000000 0 0 1
197 0 0 1000000000 0 1 0
198 0 0 1000000000 0 0 1
199 0 0 1000000000 0 1 0
200 0 0 1000000000 0 0 1
201 0 0 1000000000 0 1 0
202 0 0 1000000000 0 0 1
203 0 0 1000000000 0 1 0
204 0 0 1000000000 0 0 1
205 0 0 1000000000 0 1 0
206 0 0 1000000000 0 0 1
207 0 0 1000000000 0 1 0
208 0 0 1000000000 0 0 1
209 0 0 1000000000 0 1 0
210 0 0 1000000000 0 0 1
211 0 0 1000000000 0 1 0
212 0 0 1000000000 0 0 1
213 0 0 1000000000 0 1 0
214 0 0 1000000000 0 0 1
215 0 0 1000000000 0 1 0
216 0 0 1000000000 0 0 1
217 0 0 1000000000 0 1 0
218 0 0 1000000000 0 0 1
219 0 0 1000000000 0 1 0
220 0 0 1000000000 0 0 1
221 0 0 1000000000 0 1 0
222 0 0 1000000000 0 0 1
223 0 0 1000000000 0 1 0
224 0 0 1000000000 0 0 1
225 0 0 1000000000 0 1 0
226 0 0 1000000000 0 0 1
227 0 0 1000000000 0 1 0
228 0 0 1000000000 0 0 1
229 0 0 1000000000 0 1 0
230 0 0 1000000000 0 0 1
231 0 0 1000000000 0 1 0
232 0 0 1000000000 0 0 1
233 0 0 1000000000 0 1 0
234 0 0 1000000000 0 0 1
235 0 0 1000000000 0 1 0
236 0 0 1000000000 0 0 1
237 0 0 1000000000 0 1 0
238 0 0 1000000000 0 0 1
239 0 0 1000000000 0 1 0
240 0 0 1000000000 0 0 1
241 0 0 1000000000 0 1 0
242 0 0 1000000000 0 0 1
243 0 0 1000000000 0 1 0
244 0 0 1000000000 0 0 1
245 0 0 1000000000 0 1 0
246 0 0 1000000000 0 0 1
247 0 0 1000000000 0 1 0
248 0 0 1000000000 0 0 1
249 0 0 1000000000 0 1 0
250 0 0 1000000000 0 0 1
251 0 0 1000000000 0 1 0
252 0 0 1000000000 0 0 1
253 0 0 1000000000 0 1 0
254 0 0 1000000000 0 0 1
255 0 0 1000000000 0 1 0
256 0 0 1000000000 0 0 1
257 0 0 1000000000 0 1 0
258 0 0 1000000000 0 0 1
259 0 0 1000000000 0 1 0
260 0 0 1000000000 0 0 1
261 0 0 1000000000 0 1 0
262 0 0 1000000000 0 0 1
263 0 0 1000000000 0 1 0
264 0 0 1000000000 0 0 1
265 0 0 1000000000 0 1 0
266 0 0 1000000000 0 0 1
267 0 0 1000000000 0 1 0
268 0 0 1000000000 0 0 1
269 0 0 1000000000 0 1 0
270 0 0 1000000000 0 0 1
271 0 0 1000000000 0 1 0
272 0 0 1000000000 0 0 1
273 0 0 1000000000 0 1 0
274 0 0 1000000000 0 0 1
275 0 0 1000000000 0 1 0
276 0 0 1000000000 0 0 1
277 0 0 1000000000 0 1 0
278 0 0 1000000000 0 0 1
279 0 0 1000000000 0 1 0
280 0 0 1000000000 0 0 1
281 0 0 1000000000 0 1 0
282 0 0 1000000000 0 0 1
283 0 0 1000000000 0 1 0
284 0 0 1000000000 0 0 1
285 0 0 1000000000 0 1 0
286 0 0 1000000000 0 0 1
287 0 0 1000000000 0 1 0
288 0 0 1000000000 0 0 1
289 0 0 1000000000 0 1 0
290 0 0 1000000000 0 0 1
291 0 0 1000000000 0 1 0
292 0 0 1000000000 0 0 1
293 0 0 1000000000 0 1 0
294 0 0 1000000000 0 0 1
295 0 0 1000000000 0 1 0
296 0 0 1000000000 0 0 1
297 0 0 1000000000 0 1 0
298 0 0 1000000000 0 0 1
299 0 0 1000000000 0 1 0
300 0 0 1000000000 0 0 1
301 0 0 1000000000 0 1 0
302 0 0 1000000000 0 0 1
303 0 0 1000000000 0 1 0
304 0 0 1000000000 0 0 1
305 0 0 1000000000 0 1 0
306 0 0 1000000000 0 0 1
307 0 0 1000000000 0 1 0
308 0 0 1000000000 0 0 1
309 0 0 1000000000 0 1 0
310 0 0 1000000000 0 0 1
311 0 0 1000000000 0 1 0
312 0 0 1000000000 0 0 1
313 0 0 1000000000 0 1 0
314 0 0 1000000000 0 0 1
315 0 0 1000000000 0 1 0
316 0 0 1000000000 0 0 1
317 0 0 1000000000 0 1 0
318 0 0 1000000000 0 0 1
319 0 0 1000000000 0 1 0
320 0 0 1000000000 0 0 1
321 0 0 1000000000 0 1 0
322 0 0 1000000000 0 0 1
323 0 0 1000000000 0 1 0
324 0 0 1000000000 0 0 1
325 0 0 1000000000 0 1 0
326 0 0 1000000000 0 0 1
327 0 0 1000000000 0 1 0
328 0 0 1000000000 0 0 1
329 0 0 1000000000 0 1 0
330 0 0 1000000000 0 0 1
331 0 0 1000000000 0 1 0
332 0 0 1000000000 0 0 1
333 0 0 1000000000 0 1 0
334 0 0 1000000000 0 0 1
335 0 0 1000000000 0 1 0
336 0 0 1000000000 0 0 1
337 0 0 1000000000 0 1 0
338 0 0 1000000000 0 0 1
339 0 0 1000000000 0 1 0
340 0 0 1000000000 0 0 1
341 0 0 1000000000 0 1 0
342 0 0 1000000000 0 0 1
343 0 0 1000000000 0 1 0
344 0 0 1000000000 0 0 1
345 0 0 1000000000 0 1 0
346 0 0 1000000000 0 0 1
347 0 0 1000000000 0 1 0
348 0 0 1000000000 0 0 1
349 0 0 1000000000 0 1 0
350 0 0 1000000000 0 0 1
351 0 0 1000000000 0 1 0
352 0 0 1000000000 0 0 1
353 0 0 1000000000 0 1 0
354 0 0 1000000000 0 0 1
355 0 0 1000000000 0 1 0
356 0 0 1000000000 0 0 1
357 0 0 1000000000 0 1 0
358 0 0 1000000000 0 0 1
359 0 0 1000000000 0 1 0
360 0 0 1000000000 0 0 1
361 0 0 1000000000 0 1 0
362 0 0 1000000000 0 0 1
363 0 0 1000000000 0 1 0
364 0 0 1000000000 0 0 1
365 0 0 1000000000 0 1 0
366 0 0 1000000000 0 0 1
367 0 0 1000000000 0 1 0
368 0 0 1000000000 0 0 1
369 0 0 1000000000 0 1 0
370 0 0 1000000000 0 0 1
371 0 0 1000000000 0 1 0
372 0 0 1000000000 0 0 1
373 0 0 1000000000 0 1 0
374 0 0 1000000000 0 0 1
375 0 0 1000000000 0 1 0
376 0 0 1000000000 0 0 1
377 0 0 1000000000 0 1 0
378 0 0 1000000000 0 0 1
379 0 0 1000000000 0 1 0
380 0 0 1000000000 0 0 1
381 0 0 1000000000 0 1 0
382 0 0 1000000000 0 0 1
383 0 0 1000000000 0 1 0
384 0 0 1000000000 0 0 1
385 0 0 1000000000 0 1 0
386 0 0 1000000000 0 0 1
387 0 0 1000000000 0 1 0
388 0 0 1000000000 0 0 1
389 0 0 1000000000 0 1 0
390 0 0 1000000000 0 0 1
391 0 0 1000000000 0 1 0
392 0 0 1000000000 0 0 1
393 0 0 1000000000 0 1 0
394 0 0 1000000000 0 0 1
395 0 0 1000000000 0 1 0
396 0 0 1000000000 0 0 1
397 0 0 1000000000 0 1 0
398 0 0 1000000000 0 0 1
399 0 0 1000000000 0 1 0
400 0 0 1000000000 0 0 1
401 0 0 1000000000 0 1 0
402 0 0 1000000000 0 0 1
403 0 0 1000000000 0 1 0
404 0 0 1000000000 0 0 1
405 0 0 1000000000 0 1 0
406 0 0 1000000000 0 0 1
407 0 0 1000000000 0 1 0
408 0 0 1000000000 0 0 1
409 0 0 1000000000 0 1 0
410 0 0 1000000000 0 0 1
411 0 0 1000000000 0 1 0
412 0 0 1000000000 0 0 1
413 0 0 1000000000 0 1 0
414 0 0 1000000000 0 0 1
415 0 0 1000000000 0 1 0
416 0 0 1000000000 0 0 1
417 0 0 1000000000 0 1 0
418 0 0 1000000000 0 0 1
419 0 0 1000000000 0 1 0
420 0 0 1000000000 0 0 1
421 0 0 1000000000 0 1 0
422 0 0 1000000000 0 0 1
423 0 0 1000000000 0 1 0
424 0 0 1000000000 0 0 1
425 0 0 1000000000 0 1 0
426 0 0 1000000000 0 0 1
427 0 0 1000000000 0 1 0
428 0 0 1000000000 0 0 1
429 0 0 1000000000 0 1 0
430 0 0 1000000000 0 0 1
431 0 0 1000000000 0 1 0
432 0 0 1000000000 0 0 1
433 0 0 1000000000 0 1 0
434 0 0 1000000000 0 0 1
435 0 0 1000000000 0 1 0
436 0 0 1000000000 0 0 1
437 0 0 1000000000 0 1 0
438 0 0 1000000000 0 0 1
439 0 0 1000000000 0 1 0
440 0 0 1000000000 0 0 1
441 0 0 1000000000 0 1 0
442 0 0 1000000000 0 0 1
443 0 0 1000000000 0 1 0
444 0 0 1000000000 0 0 1
445 0 0 1000000000 0 1 0
446 0 0 1000000000 0 0 1
447 0 0 1000000000 0 1 0
448 0 0 1000000000 0 0 1
449 0 0 1000000000 0 1 0
450 0 0 1000000000 0 0 1
451 0 0 1000000000 0 1 0
452 0 0 1000000000 0 0 1
453 0 0 1000000000 0 1 0
454 0 0 1000000000 0 0 1
455 0 0 1000000000 0 1 0
456 0 0 1000000000 0 0 1
457 0 0 1000000000 0 1 0
458 0 0 1000000000 0 0 1
459 0 0 1000000000 0 1 0
460 0 0 1000000000 0 0 1
461 0 0 1000000000 0 1 0
462 0 0 1000000000 0 0 1
463 0 0 1000000000 0 1 0
464 0 0 1000000000 0 0 1
465 0 0 1000000000 0 1 0
466 0 0 1000000000 0 0 1
467 0 0 1000000000 0 1 0
468 0 0 1000000000 0 0 1
469 0 0 1000000000 0 1 0
470 0 0 1000000000 0 0 1
471 0 0 1000000000 0 1 0
472 0 0 1000000000 0 0 1
473 0 0 1000000000 0 1 0
474 0 0 1000000000 0 0 1
475 0 0 1000000000 0 1 0
476 0 0 1000000000 0 0 1
477 0 0 1000000000 0 1 0
478 0 0 1000000000 0 0 1
479 0 0 1000000000 0 1 0
480 0 0 1000000000 0 0 1
481 0 0 1000000000 0 1 0
482 0 0 1000000000 0 0 1
483 0 0 1000000000 0 1 0
484 0 0 1000000000 0 0 1
485 0 0 1000000000 0 1 0
486 0 0 1000000000 0 0 1
487 0 0 1000000000 0 1 0
488 0 0 1000000000 0 0 1
489 0 0 1000000000 0 1 0
490 0 0 1000000000 0 0 1
491 0 0 1000000000 0 1 0
492 0 0 1000000000 0 0 1
493 0 0 1000000000 0 1 0
494 0 0 1000000000 0 0 1
495 0 0 1000000000 0 1 0
496 0 0 1000000000 0 0 1
497 0 0 1000000000 0 1 0
498 0 0 1000000000 0 0 1
499 0 0 1000000000 0 1 0
500 0 0 1000000000 0 0 1
501 0 0 1000000000 0 1 0
502 0 0 1000000000 0 0 1
503 0 0 1000000000 0 1 0
504 0 0 1000000000 0 0 1
505 0 0 1000000000 0 1 0
506 0 0 1000000000 0 0 1
507 0 0 1000000000 0 1 0
508 0 0 1000000000 0 0 1
509 0 0 1000000000 0 1 0
510 0 0 1000000000 0 0 1
511 0 0 1000000000 0 1 0
512 0 0 1000000000 0 0 1
513 0 0 1000000000 0 1 0
514 0 0 1000000000 0 0 1
515 0 0 1000000000 0 1 0
516 0 0 1000000000 0 0 1
517 0 0 1000000000 0 1 0
518 0 0 1000000000 0 0 1
519 0 0 1000000000 0 1 0
520 0 0 1000000000 0 0 1
521 0 0 1000000000 0 1 0
522 0 0 1000000000 0 0 1
523 0 0 1000000000 0 1 0
524 0 0 1000000000 0 0 1
525 0 0 1000000000 0 1 0
526 0 0 1000000000 0 0 1
527 0 0 1000000000 0 1 0
528 0 0 1000000000 0 0 1
529 0 0 1000000000 0 1 0
530 0 0 1000000000 0 0 1
531 0 0 1000000000 0 1 0
532 0 0 1000000000 0 0 1
533 0 0 1000000000 0 1 0
534 0 0 1000000000 0 0 1
535 0 0 1000000000 0 1 0
536 0 0 1000000000 0 0 1
537 0 0 1000000000 0 1 0
538 0 0 1000000000 0 0 1
539 0 0 1000000000 0 1 0
540 0 0 1000000000 0 0 1
541 0 0 1000000000 0 1 0
542 0 0 1000000000 0 0 1
543 0 0 1000000000 0 1 0
544 0 0 1000000000 0 0 1
545 0 0 1000000000 0 1 0
546 0 0 1000000000 0 0 1
547 0 0 1000000000 0 1 0
548 0 0 1000000000 0 0 1
549 0 0 1000000000 0 1 0
550 0 0 1000000000 0 0 1
551 0 0 1000000000 0 1 0
552 0 0 1000000000 0 0 1
553 0 0 1000000000 0 1 0
554 0 0 1000000000 0 0 1
555 0 0 1000000000 0 1 0
556 0 0 1000000000 0 0 1
557 0 0 1000000000 0 1 0
558 0 0 1000000000 0 0 1
559 0 0 1000000000 0 1 0
560 0 0 1000000000 0 0 1
561 0 0 1000000000 0 1 0
562 0 0 1000000000 0 0 1
563 0 0 1000000000 0 1 0
564 0 0 1000000000 0 0 1
565 0 0 1000000000 0 1 0
566 0 0 1000000000 0 0 1
567 0 0 1000000000 0 1 0
568 0 0 1000000000 0 0 1
569 0 0 1000000000 0 1 0
570 0 0 1000000000 0 0 1
571 0 0 1000000000 0 1 0
572 0 0 1000000000 0 0 1
573 0 0 1000000000 0 1 0
574 0 0 1000000000 0 0 1
575 0 0 1000000000 0 1 0
576 0 0 1000000000 0 0 1
577 0 0 1000000000 0 1 0
578 0 0 1000000000 0 0 1
579 0 0 1000000000 0 1 0
580 0 0 1000000000 0 0 1
581 0 0 1000000000 0 1 0
582 0 0 1000000000 0 0 1
583 0 0 1000000000 0 1 0
584 0 0 1000000000 0 0 1
585 0 0 1000000000 0 1 0
586 0 0 1000000000 0 0 1
587 0 0 1000000000 0 1 0
588 0 0 1000000000 0 0 1
589 0 0 1000000000 0 1 0
590 0 0 1000000000 0 0 1
591 0 0 1000000000 0 1 0
592 0 0 1000000000 0 0 1
593 0 0 1000000000 0 1 0
594 0 0 1000000000 0 0 1
595 0 0 1000000000 0 1 0
596 0 0 1000000000 0 0 1
597 0 0 1000000000 0 1 0
598 0 0 1000000000 0 0 1
599 0 0 1000000000 0 1 0
600 0 0 1000000000 0 0 1
601 0 0 1000000000 0 1 0
602 0 0 1000000000 0 0 1
603 0 0 1000000000 0 1 0
604 0 0 1000000000 0 0 1
605 0 0 1000000000 0 1 0
606 0 0 1000000000 0 0 1
607 0 0 1000000000 0 1 0
608 0 0 1000000000 0 0 1
609 0 0 1000000000 0 1 0
610 0 0 1000000000 0 0 1
611 0 0 1000000000 0 1 0
612 0 0 1000000000 0 0 1
613 0 0 1000000000 0 1 0
614 0 0 1000000000 0 0 1
615 0 0 1000000000 0 1 0
616 0 0 1000000000 0 0 1
617 0 0 1000000000 0 1 0
618 0 0 1000000000 0 0 1
619 0 0 1000000000 0 1 0
620 0 0 1000000000 0 0 1
621 0 0 1000000000 0 1 0
622 0 0 1000000000 0 0 1
623 0 0 1000000000 0 1 0
624 0 0 1000000000 0 0 1
625 0 0 1000000000 0 1 0
626 0 0 1000000000 0 0 1
627 0 0 1000000000 0 1 0
628 0 0 1000000000 0 0 1
629 0 0 1000000000 0 1 0
630 0 0 1000000000 0 0 1
631 0 0 1000000000 0 1 0
632 0 0 1000000000 0 0 1
633 0 0 1000000000 0 1 0
634 0 0 1000000000 0 0 1
635 0 0 1000000000 0 1 0
636 0 0 1000000000 0 0 1
637 0 0 1000000000 0 1 0
638 0 0 1000000000 0 0 1
639 0 0 1000000000 0 1 0
640 0 0 1000000000 0 0 1
641 0 0 1000000000 0 1 0
642 0 0 1000000000 0 0 1
643 0 0 1000000000 0 1 0
644 0 0 1000000000 0 0 1
645 0 0 1000000000 0 1 0
646 0 0 1000000000 0 0 1
647 0 0 1000000000 0 1 0
648 0 0 1000000000 0 0 1
649 0 0 1000000000 0 1 0
650 0 0 1000000000 0 0 1
651 0 0 1000000000 0 1 0
652 0 0 1000000000 0 0 1
653 0 0 1000000000 0 1 0
654 0 0 1000000000 0 0 1
655 0 0 1000000000 0 1 0
